set INVESTMENTS := A B C D E F G H I J;

set COMBINATIONS := 1 2 3 4 5 6 7 8;

param capital := 10000;

param numConstraints := 4;

param:     return       risk   upper   lower       fixedCost:=
    A        0.16       0.112    0.8      0.025       5000
    B        0.02       0.002    0.9      0.0           10
    C        0.05       0.035    0.7      0.025        250
    D        0.04       0.015    0.9      0.0            0
    E        0.01       0.001    1.0      0.0            0
    F        0.02       0.003    0.5      0.05           0   
    G        0.19       0.160    1.0      0.0          150
    H        0.25       0.290    1.0      0.0            0
    I        0.27       0.100    0.1      0.0          100 
    J        0.02       0.001    0.2      0.0            0;  
    
   
param combo (tr):      1   2   3   4   5   6   7  8:=
    A                  1   0   0   1   1   1   0  0
    B                  1   1   0   0   0   1   0  0
    C                  1  -1   0   0   0  -1   0  0
    D                  0   0   1   0   0   1   1  0
    E                  0   1   1   1   1   0   1  0
    F                  0   0   0   0   0   1   1  0
    G                  0   0  -1   1   0   0  -1  1
    H                  0   0   0   0   0   0   0  1
    I                  1   0   0   0   1   0   0  1
    J                  0   0   0   0   0   1   0  1;

param comboReq := 
	1  	0.15 
	2 	0.50 
	3 	0.25
	4   0.30 
	5   0.20
	6   0.15
	7   0.65
	8   0.20; 


